letting n =  10
letting blocks =  [[1, 5], [2, 1], [2, 4], [2, 6], [2, 9], [2, 10], [3, 7], [3, 9], [3, 10], [4, 3], [4, 4], [4, 5], [4, 8], [4, 9], [5, 3], [5, 8], [6, 4], [6, 6], [7, 2], [7, 3], [7, 6], [7, 8], [7, 10], [8, 1], [8, 2], [8, 8], [9, 3], [9, 10], [10, 3], [10, 4], [10, 7], [10, 8]]
